c
c Renamed file of parity.cnf 
c Variables are renamed according to left2right.ord 
c
c Date: Thu Apr 29 14:50:07 PDT 2004 by (jinbo)
c Host: Linux solution 2.4.18-4smp #1 SMP Thu May 2 18:32:34 EDT 2002 i686 unknown
c
c Copyright (c) 2001 Fadi A. Aloul.
c
p cnf 61 135
-33 -30 0
29 -30 0
30 33 -29 0
-30 31 0
33 -32 0
-29 -32 0
32 -33 29 0
-32 31 0
-31 30 32 0
-61 -58 0
60 -58 0
58 61 -60 0
-58 57 0
61 -59 0
-60 -59 0
59 -61 60 0
-59 57 0
-57 58 59 0
-50 -51 0
52 -51 0
51 50 -52 0
-51 54 0
50 -53 0
-52 -53 0
53 -50 52 0
-53 54 0
-54 51 53 0
-39 -40 0
38 -40 0
40 39 -38 0
-40 43 0
39 -41 0
-38 -41 0
41 -39 38 0
-41 43 0
-43 40 41 0
-35 -36 0
34 -36 0
36 35 -34 0
-36 42 0
35 -37 0
-34 -37 0
37 -35 34 0
-37 42 0
-42 36 37 0
-6 -7 0
5 -7 0
7 6 -5 0
-7 10 0
6 -8 0
-5 -8 0
8 -6 5 0
-8 10 0
-10 7 8 0
-2 -3 0
1 -3 0
3 2 -1 0
-3 9 0
2 -4 0
-1 -4 0
4 -2 1 0
-4 9 0
-9 3 4 0
-28 -25 0
27 -25 0
25 28 -27 0
-25 24 0
28 -26 0
-27 -26 0
26 -28 27 0
-26 24 0
-24 25 26 0
-18 -19 0
17 -19 0
19 18 -17 0
-19 21 0
18 -20 0
-17 -20 0
20 -18 17 0
-20 21 0
-21 19 20 0
-57 -55 0
54 -55 0
55 57 -54 0
-55 49 0
57 -56 0
-54 -56 0
56 -57 54 0
-56 49 0
-49 55 56 0
-43 -44 0
42 -44 0
44 43 -42 0
-44 46 0
43 -45 0
-42 -45 0
45 -43 42 0
-45 46 0
-46 44 45 0
-10 -11 0
9 -11 0
11 10 -9 0
-11 13 0
10 -12 0
-9 -12 0
12 -10 9 0
-12 13 0
-13 11 12 0
-24 -23 0
21 -23 0
23 24 -21 0
-23 16 0
24 -22 0
-21 -22 0
22 -24 21 0
-22 16 0
-16 23 22 0
-49 -47 0
46 -47 0
47 49 -46 0
-47 33 0
49 -48 0
-46 -48 0
48 -49 46 0
-48 33 0
-33 47 48 0
-13 -15 0
16 -15 0
15 13 -16 0
-15 29 0
13 -14 0
-16 -14 0
14 -13 16 0
-14 29 0
-29 15 14 0
